%chk=/home/gegroenh/im_S0.chk
#p opt casscf(2,2)/6-31g geom=connectivity

Comment, whatever

1 1
 C                 -1.86956513    1.60869563    0.00000000
 H                 -2.46315013    2.53273363    0.00000000
 H                 -2.46318113    0.68468163   -0.00002200
 H                  0.04993587    0.68465763   -0.00001900
 H                  0.04996687    2.53270963    0.00002600
 N                 -0.54364913    1.60869563    0.00000000

 1 2 1.0 3 1.0 6 2.0
 2
 3
 4 6 1.0
 5 6 1.0
 6
 
 
 
